p cnf 81 414
1 2 -3 0
4 5 -6 0
7 8 -9 0
10 11 -12 0
13 14 -15 0
16 17 -18 0
19 20 -21 0
22 23 -24 0
25 26 -27 0
2 -25 28 29 0
-1 5 30 31 0
-4 8 32 33 0
-7 11 34 35 0
-10 14 36 37 0
-13 17 38 39 0
-16 20 40 41 0
-19 23 42 43 0
-22 26 44 45 0
1 29 46 -47 0
4 31 48 -49 0
7 33 50 -51 0
10 35 52 -53 0
13 37 54 -55 0
16 39 56 -57 0
19 41 58 -59 0
22 43 60 -61 0
25 45 62 -63 0
2 29 -44 64 0
5 -28 31 65 0
8 -30 33 66 0
11 -32 35 67 0
14 -34 37 68 0
17 -36 39 69 0
20 -38 41 70 0
23 -40 43 71 0
26 -42 45 72 0
6 29 46 -72 0
9 31 48 -64 0
12 33 50 -65 0
15 35 52 -66 0
18 37 54 -67 0
21 39 56 -68 0
24 41 58 -69 0
27 43 60 -70 0
3 45 62 -71 0
1 2 -45 73 0
4 5 -29 74 0
7 8 -31 75 0
10 11 -33 76 0
13 14 -35 77 0
16 17 -37 78 0
19 20 -39 79 0
22 23 -41 80 0
25 26 -43 81 0
-62 73 0
-46 74 0
-48 75 0
-50 76 0
-52 77 0
-54 78 0
-56 79 0
-58 80 0
-60 81 0
1 -26 64 73 0
-2 4 65 74 0
-5 7 66 75 0
-8 10 67 76 0
-11 13 68 77 0
-14 16 69 78 0
-17 19 70 79 0
-20 22 71 80 0
-23 25 72 81 0
1 6 29 -81 0
4 9 31 -73 0
7 12 33 -74 0
10 15 35 -75 0
13 18 37 -76 0
16 21 39 -77 0
19 24 41 -78 0
22 27 43 -79 0
3 25 45 -80 0
3 6 9 12 15 18 21 24 27 0
1 4 7 10 13 16 19 22 25 0
47 49 51 53 55 57 59 61 63 0
28 30 32 34 36 38 40 42 44 0
64 65 66 67 68 69 70 71 72 0
29 31 33 35 37 39 41 43 45 0
46 48 50 52 54 56 58 60 62 0
2 5 8 11 14 17 20 23 26 0
73 74 75 76 77 78 79 80 81 0
-3 -6 0
-3 -9 0
-3 -12 0
-3 -15 0
-3 -18 0
-3 -21 0
-3 -24 0
-3 -27 0
-6 -9 0
-6 -12 0
-6 -15 0
-6 -18 0
-6 -21 0
-6 -24 0
-6 -27 0
-9 -12 0
-9 -15 0
-9 -18 0
-9 -21 0
-9 -24 0
-9 -27 0
-12 -15 0
-12 -18 0
-12 -21 0
-12 -24 0
-12 -27 0
-15 -18 0
-15 -21 0
-15 -24 0
-15 -27 0
-18 -21 0
-18 -24 0
-18 -27 0
-21 -24 0
-21 -27 0
-24 -27 0
-1 -25 0
-4 -25 0
-7 -25 0
-10 -25 0
-13 -25 0
-16 -25 0
-19 -25 0
-22 -25 0
-1 -4 0
-1 -7 0
-1 -10 0
-1 -13 0
-1 -16 0
-1 -19 0
-1 -22 0
-4 -7 0
-4 -10 0
-4 -13 0
-4 -16 0
-4 -19 0
-4 -22 0
-7 -10 0
-7 -13 0
-7 -16 0
-7 -19 0
-7 -22 0
-10 -13 0
-10 -16 0
-10 -19 0
-10 -22 0
-13 -16 0
-13 -19 0
-13 -22 0
-16 -19 0
-16 -22 0
-19 -22 0
-47 -49 0
-47 -51 0
-47 -53 0
-47 -55 0
-47 -57 0
-47 -59 0
-47 -61 0
-47 -63 0
-49 -51 0
-49 -53 0
-49 -55 0
-49 -57 0
-49 -59 0
-49 -61 0
-49 -63 0
-51 -53 0
-51 -55 0
-51 -57 0
-51 -59 0
-51 -61 0
-51 -63 0
-53 -55 0
-53 -57 0
-53 -59 0
-53 -61 0
-53 -63 0
-55 -57 0
-55 -59 0
-55 -61 0
-55 -63 0
-57 -59 0
-57 -61 0
-57 -63 0
-59 -61 0
-59 -63 0
-61 -63 0
-28 -44 0
-30 -44 0
-32 -44 0
-34 -44 0
-36 -44 0
-38 -44 0
-40 -44 0
-42 -44 0
-28 -30 0
-28 -32 0
-28 -34 0
-28 -36 0
-28 -38 0
-28 -40 0
-28 -42 0
-30 -32 0
-30 -34 0
-30 -36 0
-30 -38 0
-30 -40 0
-30 -42 0
-32 -34 0
-32 -36 0
-32 -38 0
-32 -40 0
-32 -42 0
-34 -36 0
-34 -38 0
-34 -40 0
-34 -42 0
-36 -38 0
-36 -40 0
-36 -42 0
-38 -40 0
-38 -42 0
-40 -42 0
-64 -72 0
-65 -72 0
-66 -72 0
-67 -72 0
-68 -72 0
-69 -72 0
-70 -72 0
-71 -72 0
-64 -65 0
-64 -66 0
-64 -67 0
-64 -68 0
-64 -69 0
-64 -70 0
-64 -71 0
-65 -66 0
-65 -67 0
-65 -68 0
-65 -69 0
-65 -70 0
-65 -71 0
-66 -67 0
-66 -68 0
-66 -69 0
-66 -70 0
-66 -71 0
-67 -68 0
-67 -69 0
-67 -70 0
-67 -71 0
-68 -69 0
-68 -70 0
-68 -71 0
-69 -70 0
-69 -71 0
-70 -71 0
-29 -45 0
-31 -45 0
-33 -45 0
-35 -45 0
-37 -45 0
-39 -45 0
-41 -45 0
-43 -45 0
-29 -31 0
-29 -33 0
-29 -35 0
-29 -37 0
-29 -39 0
-29 -41 0
-29 -43 0
-31 -33 0
-31 -35 0
-31 -37 0
-31 -39 0
-31 -41 0
-31 -43 0
-33 -35 0
-33 -37 0
-33 -39 0
-33 -41 0
-33 -43 0
-35 -37 0
-35 -39 0
-35 -41 0
-35 -43 0
-37 -39 0
-37 -41 0
-37 -43 0
-39 -41 0
-39 -43 0
-41 -43 0
-46 -62 0
-48 -62 0
-50 -62 0
-52 -62 0
-54 -62 0
-56 -62 0
-58 -62 0
-60 -62 0
-46 -48 0
-46 -50 0
-46 -52 0
-46 -54 0
-46 -56 0
-46 -58 0
-46 -60 0
-48 -50 0
-48 -52 0
-48 -54 0
-48 -56 0
-48 -58 0
-48 -60 0
-50 -52 0
-50 -54 0
-50 -56 0
-50 -58 0
-50 -60 0
-52 -54 0
-52 -56 0
-52 -58 0
-52 -60 0
-54 -56 0
-54 -58 0
-54 -60 0
-56 -58 0
-56 -60 0
-58 -60 0
-2 -26 0
-5 -26 0
-8 -26 0
-11 -26 0
-14 -26 0
-17 -26 0
-20 -26 0
-23 -26 0
-2 -5 0
-2 -8 0
-2 -11 0
-2 -14 0
-2 -17 0
-2 -20 0
-2 -23 0
-5 -8 0
-5 -11 0
-5 -14 0
-5 -17 0
-5 -20 0
-5 -23 0
-8 -11 0
-8 -14 0
-8 -17 0
-8 -20 0
-8 -23 0
-11 -14 0
-11 -17 0
-11 -20 0
-11 -23 0
-14 -17 0
-14 -20 0
-14 -23 0
-17 -20 0
-17 -23 0
-20 -23 0
-73 -81 0
-74 -81 0
-75 -81 0
-76 -81 0
-77 -81 0
-78 -81 0
-79 -81 0
-80 -81 0
-73 -74 0
-73 -75 0
-73 -76 0
-73 -77 0
-73 -78 0
-73 -79 0
-73 -80 0
-74 -75 0
-74 -76 0
-74 -77 0
-74 -78 0
-74 -79 0
-74 -80 0
-75 -76 0
-75 -77 0
-75 -78 0
-75 -79 0
-75 -80 0
-76 -77 0
-76 -78 0
-76 -79 0
-76 -80 0
-77 -78 0
-77 -79 0
-77 -80 0
-78 -79 0
-78 -80 0
-79 -80 0
